ITEM: TIMESTEP
0
ITEM: NUMBER OF ATOMS
216
ITEM: BOX BOUNDS pp pp pp
0.0000000000000000e+00 1.6289999999999999e+01
0.0000000000000000e+00 1.6289999999999999e+01
0.0000000000000000e+00 1.6289999999999999e+01
ITEM: ATOMS id type x y z fx fy fz
1 1 0.038194975717084 0.0429568770308778 16.26623225796327 -0.9364662018758235 0.3512470778372379 -0.08034797274908501
2 1 0.04455785369247098 2.698847009359787 2.731686309951677 0.1307264949104314 0.1036526882385544 0.05134541951338489
3 1 2.672189682501922 16.27699380980664 2.719961420295276 -0.02181315912785087 0.2469663933076323 0.2492252670187773
4 1 2.730099634167319 2.694551450130321 0.02122234030217972 -0.233808341177444 0.660794238197324 -0.4724418399884341
5 1 1.382303466431239 1.329360309840115 1.313727482811654 0.2666990663747231 0.5461913504182822 -0.329136020779112
6 1 1.353654207571481 4.03626665388875 4.098651908224519 -0.4268777026008446 0.6935361691722619 0.4411906939516828
7 1 4.071573131731279 1.379625007618277 4.02750304037938 0.0924551957437286 0.1023222483150767 -0.3797058785584719
8 1 4.038245014099285 4.048951966691041 1.385704176331965 -0.1641394104261367 0.6466462063044652 -0.2916179792126585
9 1 5.453714684496501 16.26270233268975 0.008105516693603954 0.3418480249018125 -0.5971528700124318 0.08218441607414884
10 1 5.395043002374024 2.692740900231405 2.706310189217939 0.3153950094376273 0.1916041357096625 0.06528596193719068
11 1 8.142155061898359 16.27512532572966 2.716349538448895 0.1413485324691331 0.4017106391944767 -0.1025051853933077
12 1 8.172531185270069 2.731630834046114 0.01442781303284122 -1.121349030547266 -0.025863942975898 0.3390215068926725
13 1 6.745574565375258 1.31672026196924 1.372442917025156 0.3168570350247881 0.4964058078789035 -0.05383556439176712
14 1 6.808275051121961 4.03878420679657 4.111163629949401 0.3023692007578228 -0.1744080498765941 -0.7277976831250871
15 1 9.512879676874903 1.308729236508361 4.082277996018425 0.585367434608717 0.2413853359333386 -0.4164100544291407
16 1 9.517759678459381 4.041915866825457 1.329973735465889 0.1397892731931439 0.2510027157796723 -0.08552285376058094
17 1 10.82221144209253 16.27770724918587 16.2857370668397 0.1932267845850196 -0.09765057291816107 -0.07796669587044004
18 1 10.8696817639003 2.736405872270188 2.683495245053663 0.3512634149910817 -0.5309988783280574 0.5449254614248383
19 1 13.56336381837649 0.03069545374284287 2.713491055960064 0.05649508737859721 -0.3665284907609478 0.07518585709212473
20 1 13.5395420159281 2.672661703511915 0.02025092475593598 -0.07516445981767705 -0.2403782655800064 0.3027082328311145
21 1 12.25767100920443 1.311651698855754 1.38510266865492 -0.5773354601205015 -0.657656927607412 0.1822053345846475
22 1 12.19800426539523 4.107688497596042 4.085579096685666 -0.2751241443926864 -0.3955751160374253 -0.03902920749454249
23 1 14.88593058421436 1.365328890792014 4.052667541387569 -0.5486068115029625 0.05349903110386833 0.1956067763813567
24 1 14.94996710048405 4.042057835403623 1.316039628707124 0.01212574065089789 -0.07716082075319228 -0.1783644281617434
25 1 0.003180109454868407 5.478099607973405 0.01011120903310888 0.01324564869974476 0.3715233416174716 0.2565054042269528
26 1 16.28576815946296 8.120456094008617 2.705572002828387 0.7358458518463784 -0.4945801938820741 0.8480725567010355
27 1 2.731443386751434 5.394001131343655 2.682014492823283 0.1408465788664515 0.203123866957806 0.5800091171940372
28 1 2.729328969951872 8.17199798111664 16.24506862737474 0.2113104716638103 0.221774555007295 -0.499097792154385
29 1 1.383600882085087 6.765025204060378 1.323604642774958 0.5536335022430818 0.1829631591829202 0.2400094888697821
30 1 1.401103500394897 9.546531137038968 4.103820213936884 -0.2777108172655455 -0.6412298714509888 -0.4608007963110279
31 1 4.111580557175484 6.814424448356463 4.091703527071142 -0.690231165524458 -0.3014468420137026 0.2026582389595499
32 1 4.10180242851344 9.488416025394534 1.34813880594477 -0.1480550184256785 -0.2462191630355751 0.08144876615598709
33 1 5.463172809417905 5.465407886740476 0.0003524471774475901 -0.108811604419837 -0.1713489906688172 -0.08461766107940791
34 1 5.419872046718314 8.124489194708637 2.689895468086421 -0.3425414247021645 -0.07326543750058918 -0.1360976438860129
35 1 8.164923637234569 5.386571001422857 2.703820913964333 0.04003684320353702 -0.02279327928242147 -0.2187597144530345
36 1 8.128560667528566 8.149139152613532 16.2567379756536 0.2914664934875194 -0.3891968979457825 -0.2736025582257622
37 1 6.744434627614419 6.787786315544642 1.369605358793449 0.6120657706529369 -0.2023070182319615 0.467121494753412
38 1 6.772345869678466 9.507031685986803 4.036546380209758 -0.324694448990854 0.1689878134127789 0.03963685598500322
39 1 9.455962840292353 6.837456793570871 4.096329545627269 -0.9003776990197487 0.4140512598204624 -0.890826095161516
40 1 9.533021643851194 9.479768207039342 1.404255710242668 0.415277536379986 -0.19771453235543 0.5789289846435208
41 1 10.8908068938464 5.401464876374912 0.01017723314472345 0.2493714443556952 0.2002233730267355 0.07887190164908824
42 1 10.90873293479845 8.099435157638245 2.706694425997182 0.8459912642913311 -0.1652309118737063 0.3374546587314458
43 1 13.55525331000343 5.447381227746318 2.741294732362169 0.924799657752411 -0.5468027986695929 -0.2278061168617753
44 1 13.57874633197381 8.109601483901312 16.24713992934075 -0.4746175500838599 0.5945422150430616 -0.5386472034359586
45 1 12.25056219404706 6.763795348920997 1.353429315195386 0.4329385807567146 -0.00677400215556449 -0.3552689212912286
46 1 12.24307215978185 9.493789453600202 4.074346658602285 -0.1796129725993638 0.6776904034780522 -0.2207725531093337
47 1 14.90152636462777 6.81361029896704 4.108294739046038 0.1431011204351573 -0.1152242142079856 0.2238982695166217
48 1 14.97937643945072 9.454817848197331 1.363574652567541 -0.06311707869445227 -0.5561208579960286 -0.03783268542745821
49 1 0.03723174169996368 10.8138827512897 0.007400925996434372 0.2783216257873981 0.5714509761739898 0.1914851243838365
50 1 16.24458758119707 13.52847717921411 2.70595105162866 -1.071229396034703 -0.3569286682118311 -0.2540657391651739
51 1 2.699466183667288 10.88314889611357 2.678496980822411 -0.3066830217601066 -0.4182678444106998 -0.4208280498966837
52 1 2.707596968469488 13.55224906668404 0.02506375875094149 -0.2778629421201262 -0.2978718265698928 -0.5924160909473694
53 1 1.405052629372828 12.23454186912022 1.380194303641419 -0.01267868518646012 0.06999016938433633 -0.187120689710474
54 1 1.396624339627625 14.8952761215031 4.050774102661886 -0.1542657937303028 -0.5754059769713891 0.1640927375397598
55 1 4.097707523105297 12.18034083072694 4.038342027690188 0.1596437378223458 -0.1378222945874066 -0.5186511853224638
56 1 4.032403827873013 14.9361350617435 1.351982722992302 -0.2044585615974615 -0.1266469244532978 0.8225850924166329
57 1 5.444625403641083 10.86915899568198 0.03524042707180625 -0.6959427941952464 0.5795016223868482 0.5598875807203085
58 1 5.466121831036229 13.57461422590987 2.731294867110576 0.01954983360986495 0.3524594255551554 0.1760407408985934
59 1 8.112523858099022 10.83348307027644 2.744962136074883 -0.4660689559841331 -0.2467786809669681 0.1391501055922946
60 1 8.183398323714918 13.53562667663704 16.24255423872851 -0.1743949136236291 0.2670080015016965 -1.210000400699881
61 1 6.836672803666057 12.26481121542738 1.317097688033058 0.6308806664326748 0.7697205833486641 -0.01618974718782857
62 1 6.833893427204524 14.96683102643319 4.074061262622271 0.1873132370757694 0.3942471644215977 0.3488263692914609
63 1 9.476693680344239 12.19068554563596 4.101965503608559 0.6033048103165587 0.09399729085978226 0.3435891938006995
64 1 9.496394177230025 14.91193670504235 1.350201646705485 -0.02515335527018345 0.02310605587640824 -0.04293542306722115
65 1 10.81795619553325 10.82977832742025 16.25434895215293 0.02494299820757371 0.1323749347923419 0.3420613626810143
66 1 10.82738758111251 13.55807575794546 2.669263789301861 0.0496693875842984 -0.06468174632341372 0.4683003102622578
67 1 13.55960795568982 10.8659112788904 2.665864311028674 -0.2707916333844707 0.2928028967251478 -0.2780625930722234
68 1 13.53718329049283 13.58956331297036 16.25560109291021 0.2765277556988001 0.6279841519816863 0.5928450649453989
69 1 12.24626045474725 12.19446293700811 1.373582295247392 0.1915452698163268 -0.3617766795092601 -0.2615440000829555
70 1 12.21889973640973 14.95786983828776 4.063372102389518 -0.2033325824750507 -0.5095522015541603 0.02745439671586013
71 1 14.97166692891585 12.19607428869632 4.070570119017767 -1.101345451702877 -0.3164453716100142 0.4718853201739923
72 1 14.98162141533527 14.91612753998191 1.385564476036497 0.07456665463309875 0.08200999948717724 -0.3289617235689379
73 1 0.03058998728198464 0.02591624831590627 5.404385445436642 -0.1090540134941248 0.4448634303923157 -0.4285421760230596
74 1 0.0409139024517098 2.754958505886588 8.127608435876951 -0.08025440165303799 0.5057677079342839 0.06341311320505988
75 1 2.673928241258919 0.006950838657538794 8.167745317254562 0.02655761120681233 0.412190441425996 0.2450785378160167
76 1 2.726738057463308 2.696531785815736 5.434724205077963 0.3966657069547818 -0.232763533470179 0.3255299163174725
77 1 1.332624843476864 1.380744315652756 6.754713175872905 -0.3212833628350722 -0.3303675252621764 0.1037660202674784
78 1 1.355689289517789 4.039888925476646 9.508170485997418 0.2883957206296901 0.05997359508016881 -0.1648929335417459
79 1 4.122159216962596 1.379959490351593 9.47915433922161 0.2519496598165817 -0.9104548169045138 0.1346244419312943
80 1 4.047855615851169 4.074335610601974 6.738607387384915 0.07008871186275714 -0.5227134455807351 0.2349073983601424
81 1 5.405539278716565 16.27865738931981 5.394742298012013 -0.339240870373281 0.2912102543555695 0.5004732669174069
82 1 5.448824555989739 2.699312519540224 8.185515912552605 -0.2576160610781592 0.07292257143244962 -0.1414740488341533
83 1 8.121274375909135 0.04343590484626401 8.172252751159133 0.05660692803740131 0.4372606057851682 -0.6897320951910184
84 1 8.144536329996555 2.722098252120008 5.430323380972409 1.01693651544669 -0.4812541483384756 0.01815134020472731
85 1 6.810046095295132 1.389723625286586 6.769970191657761 -0.3576214610109301 -0.8031268126420263 -0.4982012776192473
86 1 6.766380300665684 4.113713288154086 9.474234005735131 -0.04783155865728621 0.217275307153233 0.4996027440975839
87 1 9.529672802797133 1.350796611422345 9.53864817535791 0.4550201726684528 -0.5959421701713474 0.348314903753554
88 1 9.469640803587222 4.107985890454373 6.798860866651572 0.6171443621899886 -0.0668024700994643 0.06882411126428473
89 1 10.83022712385293 0.007270596109922323 5.426908819464458 -0.3027590216952744 -0.5083831942162184 0.2352017127338177
90 1 10.8280352229709 2.682992471865375 8.194474641354509 -0.1161736242420769 0.1864219571047046 -0.5704301837303715
91 1 13.62432120526178 0.04149683471373135 8.182301033682796 0.02753745835582955 0.02371830258972385 -0.6332775995078466
92 1 13.58956070764203 2.736813339540648 5.446797659670374 -0.003767960884620392 -0.0900532130197253 0.04682331801536765
93 1 12.1956290107072 1.371782955911142 6.741139998568054 0.1465356482574935 -0.4476024092624097 0.074208808256577
94 1 12.24655789067925 4.04846864613051 9.507535515481157 -0.06009755260686378 0.5382532751925223 -0.1742912132542253
95 1 14.94685790227929 1.370763608032495 9.523960202136756 1.11537542568688 0.3318745890342465 -0.2815549937896762
96 1 14.94180376153407 4.040820103091336 6.743472656098182 0.2592838424117863 -0.3897694885543457 -0.4128130855512033
97 1 16.2745688810733 5.479184198956556 5.468831862848639 0.517795858913551 0.5456782832678845 0.2274096448363062
98 1 0.003295853526003589 8.138410211542347 8.190425392219529 -0.04886056848919962 0.3269657588255039 0.3773608020556456
99 1 2.744155146088058 5.44054030198629 8.095855483580779 -0.1508747248516573 -0.5216463587229091 -0.3493555517427621
100 1 2.702079668947067 8.192995993354355 5.398660306659834 -0.6600853441480712 -0.1214387879962144 -0.2831081961965952
101 1 1.370971342093996 6.800346573797449 6.799865813722072 -0.1319296310244379 0.2263108528898761 -0.1449354389237132
102 1 1.344941213027314 9.526967350064995 9.525252542361967 0.04117735981476905 0.4095412818125896 0.3882980225057695
103 1 4.065449429919454 6.788568656263439 9.463405819624152 0.1443006556169126 -0.01071373663402653 0.3233670745321104
104 1 4.109512914608704 9.478555828494045 6.75780949942782 -0.3251488969387832 0.04795915457572086 0.7810789803461308
105 1 5.464852806425119 5.4011175869783 5.403284344292843 0.1871444186553306 -0.06808301127867432 -0.05835573738780422
106 1 5.456060027524857 8.135882610269302 8.109030796156279 0.5296109437693239 0.5266657424400792 0.2644352913384076
107 1 8.174883226742914 5.477391868148647 8.160127974313278 0.5011722982243954 0.2527878971567335 -0.2410656005258223
108 1 8.114337764763896 8.104812386804172 5.396785017734759 -0.9542467133671922 0.03391358985094765 -0.05493467094824806
109 1 6.759606762659786 6.78586002301814 6.824406865884971 -0.5481673685592925 -0.2462261513485542 0.4637633925941884
110 1 6.779720182922771 9.547114383016998 9.536435366703166 -0.4906269528363048 -0.09409367819118569 0.8654294018392195
111 1 9.481714922911122 6.752709367226441 9.476334974795503 -0.06736962515353925 0.2484527977617297 0.1408943099465882
112 1 9.501552817769838 9.483208257682019 6.751186861709545 0.4716152398961455 -0.6315260869185866 0.02342449095568788
113 1 10.83788104318449 5.476692801777595 5.395919476056434 -0.5101775315463395 -0.159593910786257 -0.004682989028545581
114 1 10.90678807635642 8.112199322356469 8.164010845184796 0.3612312486607404 0.3031822567863281 0.1758287121581542
115 1 13.57455817495918 5.404246538907404 8.106579416744214 0.3155581877846658 -0.0889478333149735 0.05292194557699414
116 1 13.56538649347629 8.170795855967233 5.380951241283189 -0.4782592198150917 0.6427248664823025 0.5615206515212197
117 1 12.17617613023551 6.757220868216697 6.786132118035402 0.3206149718349672 -0.0829393107810756 -0.04661703067333775
118 1 12.20649837287096 9.498152842263529 9.539819923139792 0.109939858521718 0.5076181028621174 0.4839714448617001
119 1 14.97055418242144 6.764143957163506 9.45748804706381 -0.3960225839730582 -0.3253592025805631 -0.09112354883400381
120 1 14.96068266352554 9.468525873746735 6.784360061374893 0.4476488800567247 -0.1533891024846002 -0.2256142185334752
121 1 0.04964877706936038 10.9069962047399 5.395213063506043 -0.3676901750431834 -0.1464004106303914 0.3725611608646019
122 1 16.27359761803113 13.60016624917051 8.114149808780825 -0.02431433379620063 -0.09889935427100965 0.1121547559639526
123 1 2.723176731065929 10.88631902507335 8.18885440777701 0.1874914797778375 -0.284217140754596 -0.6355354521615333
124 1 2.694550639320887 13.58259506614767 5.380276743853593 -0.08527460600887549 -0.6019057039070794 0.2792526016893959
125 1 1.309568853658656 12.23872344103233 6.789873430390085 0.6187724718010953 0.2181225687311821 0.8931897793353998
126 1 1.321510125684557 14.95068238034294 9.493766423808999 0.1478823383999521 -0.2615558880414444 0.167314442989278
127 1 4.038393050569991 12.18200092984107 9.469627838925051 -0.458493388605993 0.6190974120027092 -0.07858545268133597
128 1 4.064751830521157 14.90901556908456 6.784669604267538 -0.1460585634306713 -0.05863551496643538 0.5775095570924823
129 1 5.421636276124807 10.89089282963466 5.445787669814092 0.2409739911859556 0.2543672184218365 0.6216039272812061
130 1 5.440967355575863 13.60334516352897 8.142163431368378 0.382931558391918 -0.3548402103721127 -0.09605332306726141
131 1 8.145188799179246 10.83314780560469 8.140168797972224 0.1996844553692159 -0.006323971201931785 -0.38849565455757
132 1 8.145101385428617 13.57898489877301 5.404193678062499 -0.01602239545026185 -0.03859484661067125 0.117714428843218
133 1 6.830598861394962 12.18006346512239 6.79165831210751 0.1351494088564051 0.5470456213922283 0.6313442877539651
134 1 6.830714955363988 14.94625480255287 9.479466506069045 -0.2108285838573285 0.4770081093839163 -0.2346452386953897
135 1 9.455399322194465 12.19640812239093 9.51131302438621 0.4162848652855566 0.07520194961844309 0.1059035602425625
136 1 9.477633329688167 14.89837206903653 6.799364296934504 -0.3806012396420646 -0.04656920513522977 0.8614528599500234
137 1 10.85257933331773 10.84085507118649 5.461181431273548 -0.0231286439500832 0.1790202700123691 -0.07369475791651801
138 1 10.87514085850918 13.54740896375031 8.122453751409171 0.1674119002546419 -0.5352475575391151 -0.1996050548523276
139 1 13.54238632587594 10.82197899696975 8.126002070582938 0.438074649822625 -0.3705928621749036 0.009914148141893619
140 1 13.58913925721503 13.61349601298035 5.432490160731827 -0.5160004043763975 0.2150804833353476 -0.3327865074129905
141 1 12.22887354721379 12.17270802219641 6.7687290550355 0.619456744879165 0.1564114631260411 -0.1490935627635713
142 1 12.19380847763564 14.94908362218485 9.523438060838235 -0.3239961322041839 0.007944206198248659 -0.598399310736111
143 1 14.90650732330233 12.25858274229387 9.480149733064533 -0.7778037925292838 -0.124202164206344 -0.6235339106689375
144 1 14.97324347326101 14.9080550977893 6.742028544705607 -0.3079909339011917 0.219529406597635 -0.07619239350543072
145 1 16.26321728618034 16.25292883298031 10.90489589999192 -0.01254202320464404 -0.2690360532344849 0.3078606532953221
146 1 0.01954874148105679 2.670698072121338 13.59249814332812 -0.2912101333429677 -0.4278041619686068 0.1438612426878819
147 1 2.726399344150628 16.2787771396147 13.55238550423057 -0.3952055397276066 -0.3693982917824166 0.6698309069472492
148 1 2.745323321642505 2.75906684557631 10.89147360104205 0.3744057471284324 0.03952282365540172 -0.07928763061706637
149 1 1.389343629238123 1.353376605131606 12.21560244690073 0.7122210714485326 -0.1068596358437064 -0.9760592447703687
150 1 1.313839600405814 4.07216402051489 14.88569279376566 -0.05037226509635584 0.007407928383795934 0.480179384648784
151 1 4.110156964029957 1.358094451488272 14.92344616339586 -0.05004482564992468 0.02636424783062045 -0.3273074696003483
152 1 4.051435084319177 4.034462152417731 12.21539568481403 0.266874658480558 0.2572513330511628 -0.3493373914295458
153 1 5.445687831987481 16.25539221360134 10.90693399765386 0.001605500862456796 -0.01870989847692043 -0.1479084607308848
154 1 5.390124735073244 2.731422376021008 13.58587378508452 -0.05637194277986879 0.4857709984157905 0.3105656469657953
155 1 8.135458739008968 0.04002652372700466 13.60078427976732 -0.1085422037271275 -0.4610101991684146 0.2985925780357894
156 1 8.149483717379384 2.672837995331659 10.84318753919247 -0.6493012309659649 0.3808614513854683 -0.6978178055533154
157 1 6.826687647630082 1.384293718792868 12.2395317517277 -0.3361565365529371 0.3711346845844046 -0.259336532709959
158 1 6.806587123344227 4.069782046427616 14.9518543089411 -0.1111112843585799 -0.07248207869810627 0.2268612857115191
159 1 9.482909632730488 1.402197301320125 14.96004328734127 0.3728374661841658 0.772518075825967 0.5618454641843829
160 1 9.546400331153487 4.105365696671821 12.1912639633118 0.09529957255038848 -0.2823373753425105 -0.9922410976089837
161 1 10.85226355806098 16.26362033097242 10.8969026534664 0.1031224973571678 -0.5538377049009671 0.651997878361992
162 1 10.8354156448531 2.725743046114567 13.53337604753132 -0.1193479768524258 -0.2654310574158604 -0.3038760498056034
163 1 13.55326579656837 0.01324292456882211 13.54883322819314 -0.3648311662194514 0.3177164017108298 0.02835170224450867
164 1 13.5289879112523 2.689824417394038 10.8339831416048 -0.412566272908431 0.2056296735231998 0.0678132493304018
165 1 12.24444815247177 1.375098593126795 12.19705468205249 0.1799786679437852 0.5129551049618764 -0.1978802996120089
166 1 12.21468509742393 4.062432404058022 14.92641500318605 -0.3604286658953926 -0.2524362742956768 -0.1415978257922854
167 1 14.90133997429108 1.350947910222899 14.91152711626563 -0.698713743285553 -0.07286672538438327 0.07334428627911155
168 1 14.95078960057734 4.065816903358007 12.1946947380282 -0.1057268430502629 -0.05593728030412759 -0.4573423555178099
169 1 0.03369985003196627 5.423379487257161 10.88904233111955 -0.07740260165216228 0.3525213300708469 0.1856380816539678
170 1 0.04993839026425891 8.159525171399361 13.59955570906147 -0.1714292751756958 0.1260709342667869 0.189398572088574
171 1 2.684027797374422 5.380190471904441 13.52626129793993 0.8226920111378173 0.309739721759359 0.3667504683646361
172 1 2.7043611874149 8.138476882224658 10.82595954984238 -0.2841046970139656 0.07922338272278662 -0.4087908864385493
173 1 1.352650544841378 6.782707149044241 12.26405398656454 0.1142162479513633 0.438064952441053 0.3111488195533123
174 1 1.328392336368976 9.489997353384968 14.90051834116598 -0.5756179748362882 0.3909746498052115 -0.4717684688008091
175 1 4.106628865359411 6.791340095621459 14.97298710986529 -0.2802990303245307 -0.9582875634523698 -0.1963056465395574
176 1 4.03115201242671 9.466872855710971 12.23208593428348 -0.5201251524488684 0.1046986503282107 -0.3555682907375802
177 1 5.427531191793983 5.436740481479438 10.8472722249186 -0.04073005398100597 0.169828655100169 0.2219463973466133
178 1 5.434278456538114 8.153019036081629 13.55093942392894 -0.09988766073807993 0.1224688000187678 -0.2606925763301089
179 1 8.173217751196686 5.385744362718306 13.57050420657988 -0.5809728628780968 -0.4790559416715042 0.1139167374588799
180 1 8.182229967483892 8.169063501774362 10.89527432171873 0.1403085241064392 -0.2543870454486536 -0.5479201145579184
181 1 6.772745591325334 6.810153404889932 12.25327598509648 0.02563413412909552 -0.11054246252052 0.1097689122033369
182 1 6.768313394501252 9.533221382554956 14.96677660115262 -0.4173252602229831 0.1870270803459155 0.2135640028861804
183 1 9.530057058156261 6.738976432290615 14.89689750837833 -0.005301401280913387 -0.4583597435885509 0.4824541345285412
184 1 9.463715933464101 9.458693731169307 12.26553976253515 -0.01410395922655302 0.3559622823969034 -0.01849426774750085
185 1 10.85058754180585 5.434815130985721 10.88790647702194 0.8076600745799193 0.4286245568980993 -0.3634279306619495
186 1 10.8209224449894 8.16853293689598 13.59307041073594 0.2393721058059173 -0.02564016765450874 0.07860020265368177
187 1 13.61877715885349 5.392708850676524 13.62265332033748 0.2890171134347599 0.2549572639624703 -0.5066885804760268
188 1 13.57220742127262 8.110129328991812 10.88863236539002 0.730375196626557 -0.7227190239285329 -0.2827483198725066
189 1 12.18738405381324 6.828792439117698 12.2195242511537 0.1675226553979837 -0.004613673643849781 0.6168217145928728
190 1 12.16993723481076 9.515105464394486 14.89254007813057 0.2978449117499013 0.02526327459941832 0.06120609906534095
191 1 14.91247420557308 6.813973066712018 14.96533222889659 -0.1291932926769104 0.7592898396761536 -0.08974272088655966
192 1 14.96845298136862 9.464257862340546 12.18189235755912 -0.3959247773752899 0.0879007115601862 0.4705066171653669
193 1 16.26444657284042 10.88354972896797 10.86029476468931 -0.6346923591808122 0.01364322127330464 -0.2616428295990374
194 1 16.26339780084947 13.57183887704594 13.54600651111501 0.2125154048955771 -0.2776880203796817 0.3127710444382923
195 1 2.733898507472546 10.8872150910819 13.57903581352627 0.1114991517170668 0.5457326854907333 0.004890088635285172
196 1 2.700276397473773 13.61541234170572 10.87022704795945 0.3429905674581049 -0.07938780527336342 -0.1910520195389522
197 1 1.317017730637229 12.2319988199065 12.19916616849213 0.4293743048157842 0.06884635689501947 -0.2341365738373225
198 1 1.319754625098898 14.94598403718485 14.95871296573254 -0.1218066043799705 -0.4708872221781359 -0.354371907482423
199 1 4.09662796801614 12.23625844726747 14.90572322433964 0.3680179554634828 0.1987871052829707 -0.4065456195902099
200 1 4.071425002128317 14.96501077061636 12.22602174915304 -0.3829184960948243 -0.2987211399460413 -0.5164635319241632
201 1 5.438942359247683 10.85423187582019 10.81513690999017 -0.1011841150088275 -0.2751599583023212 0.168032481541687
202 1 5.456657450095125 13.60676374876954 13.52832556963122 0.3775791130800945 0.1942861870782236 0.212140924318985
203 1 8.117383623627193 10.81156230223438 13.58261365320422 0.03475265423620379 0.2704510053535236 -0.2556974361957061
204 1 8.160784739314478 13.5691136584357 10.82825732873671 0.02621152532165086 -0.5660075934252002 -0.0179648727140861
205 1 6.743958437678617 12.21446206452649 12.25891849674816 -0.1866882734730462 -0.2136633758007883 0.01776628273030761
206 1 6.798824335430433 14.96060557930642 14.90297140301227 0.2115274411270094 -0.3282168512942215 -0.317330268189381
207 1 9.488767739690964 12.21940098604741 14.98237249891268 0.1851687218305604 -0.1335965785554433 -0.05904242525994315
208 1 9.488757142776743 14.95629864872144 12.20138906132145 -0.4158363795381566 -0.1239983604906834 0.1815979402519208
209 1 10.85568460320387 10.8311260474851 10.8754800820935 -0.2366130603022373 -0.3001289902719221 -0.09523676079685739
210 1 10.8706609482135 13.55355662425447 13.57618384489379 -0.2570886180318409 0.2056030092631427 -0.1178594442235331
211 1 13.53801823962155 10.90755331934316 13.60363820045192 0.8009021365704909 -0.3580684033558792 -1.021032752661503
212 1 13.60395956159521 13.59835173067327 10.83253742568313 0.491322102140042 -0.251211880687197 -0.2415496221552508
213 1 12.17224064480734 12.24351727697813 12.18987417140155 -0.02851043817638232 0.4068064021531627 -0.8712807434714483
214 1 12.24758001599464 14.88732882200965 14.94051151621063 0.03100743780778759 -0.08508557323449678 0.3463589461172096
215 1 14.92589984657401 12.18872136942168 14.95005587014721 0.7490836904477788 -0.5803860869704267 0.6510882970101453
216 1 14.92230916321269 14.95510611563577 12.25848549033095 -0.3645611216883566 -0.2338208219656126 0.6368423151601283
