64
pbc=[T, T, T] Lattice="10.86000000 0.00000000 0.00000000 0.00000000 10.86000000 0.00000000 0.00000000 0.00000000 10.86000000" Properties=species:S:1:pos:R:3:momenta:R:3:masses:R:1:Z:I:1
Si         0.00246301      -0.02865707      -0.01497495         0.00000000       0.00000000       0.00000000        28.08500000         14
Si         1.32926269       1.34643902       1.36027800         0.00000000       0.00000000       0.00000000        28.08500000         14
Si        -0.01334029       2.69173734       2.71115052         0.00000000       0.00000000       0.00000000        28.08500000         14
Si         1.37533641       4.07828681       4.07561100         0.00000000       0.00000000       0.00000000        28.08500000         14
Si         2.70995485       0.00087093       2.73092133         0.00000000       0.00000000       0.00000000        28.08500000         14
Si         4.09732972       1.34657198       4.05222115         0.00000000       0.00000000       0.00000000        28.08500000         14
Si         2.68867540       2.71845404       0.01934577         0.00000000       0.00000000       0.00000000        28.08500000         14
Si         4.08167735       4.06694282       1.32904278         0.00000000       0.00000000       0.00000000        28.08500000         14
Si         5.40672219       0.01336860       0.00609647         0.00000000       0.00000000       0.00000000        28.08500000         14
Si         6.80537235       1.33458658       1.35852882         0.00000000       0.00000000       0.00000000        28.08500000         14
Si         5.41962241       2.69110836       2.72380459         0.00000000       0.00000000       0.00000000        28.08500000         14
Si         6.80489006       4.07657058       4.06030550         0.00000000       0.00000000       0.00000000        28.08500000         14
Si         8.11819082       0.01019575       2.73292493         0.00000000       0.00000000       0.00000000        28.08500000         14
Si         9.49392135       1.35642427       4.08931018         0.00000000       0.00000000       0.00000000        28.08500000         14
Si         8.16485383       2.72415105       0.02554159         0.00000000       0.00000000       0.00000000        28.08500000         14
Si         9.49146666       4.09639226       1.32944486         0.00000000       0.00000000       0.00000000        28.08500000         14
Si        -0.02030970       5.44360561      -0.01984730         0.00000000       0.00000000       0.00000000        28.08500000         14
Si         1.34852953       6.77539604       1.36992749         0.00000000       0.00000000       0.00000000        28.08500000         14
Si         0.00856331       8.11759493       2.71331278         0.00000000       0.00000000       0.00000000        28.08500000         14
Si         1.36760300       9.49342706       4.08285032         0.00000000       0.00000000       0.00000000        28.08500000         14
Si         2.68638672       5.42718361       2.71292446         0.00000000       0.00000000       0.00000000        28.08500000         14
Si         4.08544879       6.77781571       4.04691258         0.00000000       0.00000000       0.00000000        28.08500000         14
Si         2.72368033       8.15523186       0.01586108         0.00000000       0.00000000       0.00000000        28.08500000         14
Si         4.09092761       9.50159825       1.35256598         0.00000000       0.00000000       0.00000000        28.08500000         14
Si         5.43825403       5.44126297       0.02466994         0.00000000       0.00000000       0.00000000        28.08500000         14
Si         6.78073836       6.77012755       1.36427571         0.00000000       0.00000000       0.00000000        28.08500000         14
Si         5.43798183       8.14361742       2.71705567         0.00000000       0.00000000       0.00000000        28.08500000         14
Si         6.77924646       9.49263978       4.08181109         0.00000000       0.00000000       0.00000000        28.08500000         14
Si         8.15594035       5.44228716       2.73852579         0.00000000       0.00000000       0.00000000        28.08500000         14
Si         9.50320120       6.79000728       4.06886490         0.00000000       0.00000000       0.00000000        28.08500000         14
Si         8.12391182       8.12140559      -0.02146400         0.00000000       0.00000000       0.00000000        28.08500000         14
Si         9.49454917       9.50140288       1.35134326         0.00000000       0.00000000       0.00000000        28.08500000         14
Si        -0.02592644      -0.00670795       5.45397417         0.00000000       0.00000000       0.00000000        28.08500000         14
Si         1.37828657       1.35799505       6.79462051         0.00000000       0.00000000       0.00000000        28.08500000         14
Si         0.01016210       2.70438590       8.16289230         0.00000000       0.00000000       0.00000000        28.08500000         14
Si         1.36515270       4.08418901       9.50636018         0.00000000       0.00000000       0.00000000        28.08500000         14
Si         2.73086526       0.02781510       8.14966444         0.00000000       0.00000000       0.00000000        28.08500000         14
Si         4.05602251       1.36798948       9.47453020         0.00000000       0.00000000       0.00000000        28.08500000         14
Si         2.70028302       2.71482183       5.42707129         0.00000000       0.00000000       0.00000000        28.08500000         14
Si         4.05507678       4.06021582       6.76849110         0.00000000       0.00000000       0.00000000        28.08500000         14
Si         5.40765481      -0.01102941       5.41965567         0.00000000       0.00000000       0.00000000        28.08500000         14
Si         6.79477758       1.33575566       6.80014535         0.00000000       0.00000000       0.00000000        28.08500000         14
Si         5.44337566       2.70978917       8.12144252         0.00000000       0.00000000       0.00000000        28.08500000         14
Si         6.76266584       4.04472040       9.51515368         0.00000000       0.00000000       0.00000000        28.08500000         14
Si         8.16038072      -0.01524908       8.12859048         0.00000000       0.00000000       0.00000000        28.08500000         14
Si         9.50695274       1.36814791       9.47430089         0.00000000       0.00000000       0.00000000        28.08500000         14
Si         8.12063190       2.70286277       5.43141850         0.00000000       0.00000000       0.00000000        28.08500000         14
Si         9.47592012       4.09136262       6.80708294         0.00000000       0.00000000       0.00000000        28.08500000         14
Si        -0.01945869       5.45058405       5.40907598         0.00000000       0.00000000       0.00000000        28.08500000         14
Si         1.37777032       6.81450338       6.78940563         0.00000000       0.00000000       0.00000000        28.08500000         14
Si        -0.02264641       8.11763114       8.17073974         0.00000000       0.00000000       0.00000000        28.08500000         14
Si         1.32900281       9.52795067       9.52075348         0.00000000       0.00000000       0.00000000        28.08500000         14
Si         2.71086136       5.44082780       8.15673720         0.00000000       0.00000000       0.00000000        28.08500000         14
Si         4.04530393       6.80491606       9.50279236         0.00000000       0.00000000       0.00000000        28.08500000         14
Si         2.71865511       8.12430213       5.45269716         0.00000000       0.00000000       0.00000000        28.08500000         14
Si         4.04540926       9.52681313       6.79342485         0.00000000       0.00000000       0.00000000        28.08500000         14
Si         5.43520665       5.45090516       5.43145079         0.00000000       0.00000000       0.00000000        28.08500000         14
Si         6.79585008       6.77999304       6.78059067         0.00000000       0.00000000       0.00000000        28.08500000         14
Si         5.40547562       8.14218742       8.13358793         0.00000000       0.00000000       0.00000000        28.08500000         14
Si         6.80810959       9.51866110       9.50833372         0.00000000       0.00000000       0.00000000        28.08500000         14
Si         8.14290430       5.42518898       8.12338298         0.00000000       0.00000000       0.00000000        28.08500000         14
Si         9.52733421       6.75874341       9.50849192         0.00000000       0.00000000       0.00000000        28.08500000         14
Si         8.13618151       8.15532675       5.43855030         0.00000000       0.00000000       0.00000000        28.08500000         14
Si         9.52279577       9.51086856       6.80485263         0.00000000       0.00000000       0.00000000        28.08500000         14
