LAMMPS data file via write_data, version 4 Jul 2026, timestep = 0, units = metal

216 atoms
1 atom types

0 16.29 xlo xhi
0 16.29 ylo yhi
0 16.29 zlo zhi

Masses

1 28.0855

Atoms # atomic

1 1 0.038194975717084 0.042956877030877805 16.266232257963267 0 0 -1
2 1 0.044557853692470985 2.6988470093597874 2.731686309951677 0 0 0
3 1 2.672189682501922 16.276993809806644 2.7199614202952764 0 -1 0
4 1 2.7300996341673187 2.6945514501303207 0.02122234030217972 0 0 0
5 1 1.3823034664312392 1.3293603098401148 1.3137274828116536 0 0 0
6 1 1.3536542075714815 4.03626665388875 4.098651908224519 0 0 0
7 1 4.071573131731279 1.3796250076182768 4.02750304037938 0 0 0
8 1 4.038245014099285 4.048951966691041 1.3857041763319653 0 0 0
9 1 5.453714684496501 16.262702332689752 0.008105516693603954 0 -1 0
10 1 5.395043002374024 2.6927409002314047 2.706310189217939 0 0 0
11 1 8.14215506189836 16.27512532572966 2.716349538448895 0 -1 0
12 1 8.172531185270069 2.7316308340461135 0.01442781303284122 0 0 0
13 1 6.745574565375258 1.3167202619692404 1.3724429170251558 0 0 0
14 1 6.808275051121961 4.03878420679657 4.111163629949401 0 0 0
15 1 9.512879676874903 1.3087292365083607 4.0822779960184254 0 0 0
16 1 9.517759678459381 4.041915866825457 1.3299737354658887 0 0 0
17 1 10.82221144209253 16.277707249185866 16.285737066839697 0 -1 -1
18 1 10.869681763900296 2.736405872270188 2.6834952450536633 0 0 0
19 1 13.563363818376494 0.03069545374284287 2.713491055960064 0 0 0
20 1 13.539542015928095 2.6726617035119147 0.020250924755935984 0 0 0
21 1 12.25767100920443 1.3116516988557538 1.38510266865492 0 0 0
22 1 12.198004265395227 4.107688497596042 4.085579096685666 0 0 0
23 1 14.885930584214362 1.3653288907920145 4.052667541387569 0 0 0
24 1 14.949967100484047 4.042057835403623 1.3160396287071237 0 0 0
25 1 0.0031801094548684072 5.478099607973405 0.010111209033108881 0 0 0
26 1 16.28576815946296 8.120456094008617 2.7055720028283874 -1 0 0
27 1 2.7314433867514336 5.394001131343655 2.682014492823283 0 0 0
28 1 2.729328969951872 8.17199798111664 16.245068627374742 0 0 -1
29 1 1.3836008820850871 6.765025204060378 1.3236046427749584 0 0 0
30 1 1.4011035003948973 9.546531137038968 4.103820213936884 0 0 0
31 1 4.1115805571754835 6.814424448356463 4.091703527071142 0 0 0
32 1 4.10180242851344 9.488416025394534 1.3481388059447699 0 0 0
33 1 5.463172809417905 5.465407886740476 0.00035244717744759013 0 0 0
34 1 5.419872046718314 8.124489194708637 2.689895468086421 0 0 0
35 1 8.164923637234569 5.386571001422857 2.7038209139643334 0 0 0
36 1 8.128560667528566 8.149139152613532 16.256737975653603 0 0 -1
37 1 6.744434627614419 6.787786315544642 1.3696053587934491 0 0 0
38 1 6.772345869678466 9.507031685986803 4.036546380209758 0 0 0
39 1 9.455962840292353 6.837456793570871 4.096329545627269 0 0 0
40 1 9.533021643851194 9.479768207039342 1.404255710242668 0 0 0
41 1 10.890806893846396 5.401464876374912 0.010177233144723453 0 0 0
42 1 10.908732934798454 8.099435157638245 2.7066944259971817 0 0 0
43 1 13.555253310003435 5.447381227746318 2.741294732362169 0 0 0
44 1 13.578746331973814 8.109601483901312 16.24713992934075 0 0 -1
45 1 12.250562194047058 6.763795348920997 1.353429315195386 0 0 0
46 1 12.243072159781851 9.493789453600202 4.074346658602285 0 0 0
47 1 14.901526364627772 6.81361029896704 4.1082947390460385 0 0 0
48 1 14.979376439450716 9.454817848197331 1.3635746525675405 0 0 0
49 1 0.03723174169996368 10.8138827512897 0.007400925996434372 0 0 0
50 1 16.244587581197074 13.528477179214114 2.70595105162866 -1 0 0
51 1 2.699466183667288 10.883148896113573 2.678496980822411 0 0 0
52 1 2.707596968469488 13.552249066684045 0.02506375875094149 0 0 0
53 1 1.405052629372828 12.234541869120225 1.380194303641419 0 0 0
54 1 1.3966243396276254 14.895276121503104 4.050774102661886 0 0 0
55 1 4.097707523105297 12.18034083072694 4.038342027690188 0 0 0
56 1 4.032403827873013 14.9361350617435 1.3519827229923023 0 0 0
57 1 5.444625403641083 10.869158995681982 0.035240427071806246 0 0 0
58 1 5.466121831036229 13.574614225909865 2.731294867110576 0 0 0
59 1 8.112523858099022 10.833483070276436 2.744962136074883 0 0 0
60 1 8.183398323714918 13.535626676637039 16.242554238728506 0 0 -1
61 1 6.836672803666057 12.264811215427383 1.317097688033058 0 0 0
62 1 6.833893427204524 14.966831026433189 4.074061262622271 0 0 0
63 1 9.476693680344239 12.190685545635962 4.101965503608559 0 0 0
64 1 9.496394177230025 14.911936705042345 1.3502016467054847 0 0 0
65 1 10.817956195533254 10.82977832742025 16.254348952152927 0 0 -1
66 1 10.827387581112509 13.558075757945456 2.6692637893018607 0 0 0
67 1 13.559607955689824 10.865911278890405 2.6658643110286744 0 0 0
68 1 13.537183290492829 13.589563312970363 16.255601092910208 0 0 -1
69 1 12.246260454747247 12.194462937008106 1.373582295247392 0 0 0
70 1 12.218899736409726 14.95786983828776 4.063372102389518 0 0 0
71 1 14.97166692891585 12.196074288696318 4.070570119017767 0 0 0
72 1 14.981621415335274 14.916127539981913 1.3855644760364967 0 0 0
73 1 0.030589987281984643 0.025916248315906266 5.404385445436642 0 0 0
74 1 0.0409139024517098 2.7549585058865875 8.127608435876951 0 0 0
75 1 2.673928241258919 0.006950838657538794 8.167745317254562 0 0 0
76 1 2.7267380574633076 2.696531785815736 5.434724205077963 0 0 0
77 1 1.332624843476864 1.3807443156527561 6.754713175872905 0 0 0
78 1 1.3556892895177888 4.039888925476646 9.508170485997418 0 0 0
79 1 4.122159216962596 1.3799594903515928 9.47915433922161 0 0 0
80 1 4.047855615851169 4.074335610601974 6.738607387384915 0 0 0
81 1 5.4055392787165655 16.278657389319807 5.394742298012013 0 -1 0
82 1 5.448824555989739 2.699312519540224 8.185515912552605 0 0 0
83 1 8.121274375909135 0.04343590484626401 8.172252751159133 0 0 0
84 1 8.144536329996555 2.722098252120008 5.430323380972409 0 0 0
85 1 6.810046095295132 1.3897236252865863 6.7699701916577615 0 0 0
86 1 6.766380300665684 4.113713288154086 9.47423400573513 0 0 0
87 1 9.529672802797133 1.3507966114223453 9.53864817535791 0 0 0
88 1 9.469640803587222 4.107985890454373 6.798860866651572 0 0 0
89 1 10.830227123852925 0.007270596109922323 5.426908819464458 0 0 0
90 1 10.828035222970897 2.682992471865375 8.194474641354509 0 0 0
91 1 13.624321205261777 0.04149683471373135 8.182301033682796 0 0 0
92 1 13.589560707642026 2.7368133395406478 5.4467976596703735 0 0 0
93 1 12.195629010707199 1.3717829559111423 6.741139998568054 0 0 0
94 1 12.246557890679249 4.04846864613051 9.507535515481157 0 0 0
95 1 14.94685790227929 1.3707636080324945 9.523960202136756 0 0 0
96 1 14.941803761534068 4.040820103091336 6.743472656098182 0 0 0
97 1 16.2745688810733 5.479184198956556 5.468831862848639 -1 0 0
98 1 0.0032958535260035893 8.138410211542347 8.19042539221953 0 0 0
99 1 2.7441551460880578 5.44054030198629 8.09585548358078 0 0 0
100 1 2.702079668947067 8.192995993354355 5.398660306659834 0 0 0
101 1 1.3709713420939964 6.800346573797449 6.799865813722072 0 0 0
102 1 1.344941213027314 9.526967350064995 9.525252542361967 0 0 0
103 1 4.065449429919454 6.788568656263439 9.463405819624152 0 0 0
104 1 4.109512914608704 9.478555828494045 6.75780949942782 0 0 0
105 1 5.464852806425119 5.4011175869783 5.403284344292843 0 0 0
106 1 5.456060027524857 8.135882610269302 8.10903079615628 0 0 0
107 1 8.174883226742914 5.477391868148647 8.160127974313278 0 0 0
108 1 8.114337764763896 8.104812386804172 5.396785017734759 0 0 0
109 1 6.759606762659786 6.78586002301814 6.8244068658849715 0 0 0
110 1 6.779720182922771 9.547114383016998 9.536435366703166 0 0 0
111 1 9.481714922911122 6.752709367226441 9.476334974795503 0 0 0
112 1 9.501552817769838 9.48320825768202 6.751186861709545 0 0 0
113 1 10.837881043184492 5.476692801777595 5.3959194760564335 0 0 0
114 1 10.90678807635642 8.112199322356469 8.164010845184796 0 0 0
115 1 13.574558174959177 5.404246538907404 8.106579416744214 0 0 0
116 1 13.565386493476288 8.170795855967233 5.380951241283189 0 0 0
117 1 12.17617613023551 6.757220868216697 6.786132118035402 0 0 0
118 1 12.206498372870962 9.49815284226353 9.539819923139792 0 0 0
119 1 14.97055418242144 6.7641439571635065 9.45748804706381 0 0 0
120 1 14.960682663525539 9.468525873746735 6.784360061374893 0 0 0
121 1 0.049648777069360384 10.9069962047399 5.395213063506043 0 0 0
122 1 16.27359761803113 13.60016624917051 8.114149808780825 -1 0 0
123 1 2.723176731065929 10.886319025073348 8.18885440777701 0 0 0
124 1 2.694550639320887 13.582595066147666 5.380276743853593 0 0 0
125 1 1.309568853658656 12.238723441032331 6.7898734303900845 0 0 0
126 1 1.3215101256845565 14.95068238034294 9.493766423809 0 0 0
127 1 4.038393050569991 12.182000929841074 9.469627838925051 0 0 0
128 1 4.064751830521157 14.909015569084563 6.784669604267538 0 0 0
129 1 5.421636276124807 10.890892829634664 5.445787669814092 0 0 0
130 1 5.440967355575863 13.603345163528967 8.142163431368378 0 0 0
131 1 8.145188799179246 10.833147805604685 8.140168797972224 0 0 0
132 1 8.145101385428617 13.578984898773014 5.404193678062499 0 0 0
133 1 6.830598861394962 12.180063465122394 6.79165831210751 0 0 0
134 1 6.830714955363988 14.946254802552868 9.479466506069045 0 0 0
135 1 9.455399322194465 12.196408122390931 9.51131302438621 0 0 0
136 1 9.477633329688167 14.898372069036528 6.799364296934504 0 0 0
137 1 10.852579333317735 10.840855071186486 5.461181431273548 0 0 0
138 1 10.875140858509177 13.547408963750307 8.122453751409171 0 0 0
139 1 13.542386325875942 10.821978996969749 8.126002070582938 0 0 0
140 1 13.589139257215027 13.613496012980349 5.432490160731827 0 0 0
141 1 12.22887354721379 12.172708022196408 6.7687290550355 0 0 0
142 1 12.193808477635638 14.949083622184853 9.523438060838235 0 0 0
143 1 14.906507323302332 12.25858274229387 9.480149733064533 0 0 0
144 1 14.97324347326101 14.908055097789296 6.742028544705607 0 0 0
145 1 16.26321728618034 16.252928832980306 10.90489589999192 -1 -1 0
146 1 0.019548741481056786 2.670698072121338 13.59249814332812 0 0 0
147 1 2.7263993441506282 16.278777139614697 13.55238550423057 0 -1 0
148 1 2.7453233216425046 2.7590668455763097 10.891473601042048 0 0 0
149 1 1.389343629238123 1.3533766051316058 12.215602446900728 0 0 0
150 1 1.313839600405814 4.07216402051489 14.88569279376566 0 0 0
151 1 4.110156964029957 1.3580944514882725 14.923446163395859 0 0 0
152 1 4.051435084319177 4.034462152417731 12.215395684814032 0 0 0
153 1 5.445687831987481 16.255392213601336 10.906933997653859 0 -1 0
154 1 5.390124735073244 2.731422376021008 13.58587378508452 0 0 0
155 1 8.135458739008968 0.04002652372700466 13.600784279767323 0 0 0
156 1 8.149483717379384 2.672837995331659 10.843187539192469 0 0 0
157 1 6.826687647630082 1.3842937187928677 12.2395317517277 0 0 0
158 1 6.806587123344227 4.0697820464276155 14.9518543089411 0 0 0
159 1 9.482909632730488 1.402197301320125 14.96004328734127 0 0 0
160 1 9.546400331153487 4.1053656966718215 12.1912639633118 0 0 0
161 1 10.852263558060985 16.26362033097242 10.896902653466398 0 -1 0
162 1 10.835415644853104 2.7257430461145673 13.533376047531318 0 0 0
163 1 13.553265796568368 0.013242924568822112 13.548833228193145 0 0 0
164 1 13.5289879112523 2.689824417394038 10.833983141604802 0 0 0
165 1 12.244448152471774 1.3750985931267954 12.197054682052487 0 0 0
166 1 12.214685097423933 4.062432404058022 14.926415003186051 0 0 0
167 1 14.901339974291082 1.350947910222899 14.911527116265626 0 0 0
168 1 14.95078960057734 4.065816903358007 12.194694738028195 0 0 0
169 1 0.03369985003196627 5.4233794872571615 10.889042331119553 0 0 0
170 1 0.049938390264258906 8.15952517139936 13.599555709061471 0 0 0
171 1 2.6840277973744215 5.380190471904441 13.526261297939932 0 0 0
172 1 2.7043611874149 8.138476882224658 10.825959549842382 0 0 0
173 1 1.3526505448413781 6.782707149044241 12.264053986564535 0 0 0
174 1 1.3283923363689762 9.489997353384968 14.900518341165975 0 0 0
175 1 4.1066288653594105 6.791340095621459 14.972987109865288 0 0 0
176 1 4.03115201242671 9.466872855710971 12.232085934283484 0 0 0
177 1 5.4275311917939835 5.436740481479438 10.8472722249186 0 0 0
178 1 5.434278456538114 8.153019036081629 13.55093942392894 0 0 0
179 1 8.173217751196686 5.385744362718306 13.570504206579878 0 0 0
180 1 8.182229967483892 8.169063501774362 10.895274321718734 0 0 0
181 1 6.772745591325334 6.810153404889932 12.253275985096476 0 0 0
182 1 6.768313394501252 9.533221382554956 14.966776601152622 0 0 0
183 1 9.530057058156261 6.738976432290615 14.896897508378325 0 0 0
184 1 9.463715933464101 9.458693731169307 12.26553976253515 0 0 0
185 1 10.850587541805853 5.434815130985721 10.887906477021941 0 0 0
186 1 10.820922444989403 8.16853293689598 13.593070410735937 0 0 0
187 1 13.618777158853494 5.392708850676524 13.622653320337484 0 0 0
188 1 13.572207421272623 8.110129328991812 10.888632365390022 0 0 0
189 1 12.187384053813238 6.828792439117698 12.219524251153704 0 0 0
190 1 12.169937234810757 9.515105464394486 14.892540078130569 0 0 0
191 1 14.912474205573076 6.813973066712018 14.965332228896594 0 0 0
192 1 14.968452981368616 9.464257862340546 12.181892357559125 0 0 0
193 1 16.26444657284042 10.88354972896797 10.860294764689307 -1 0 0
194 1 16.263397800849468 13.57183887704594 13.546006511115007 -1 0 0
195 1 2.733898507472546 10.8872150910819 13.579035813526266 0 0 0
196 1 2.700276397473773 13.615412341705715 10.870227047959448 0 0 0
197 1 1.3170177306372288 12.231998819906496 12.19916616849213 0 0 0
198 1 1.3197546250988983 14.945984037184846 14.95871296573254 0 0 0
199 1 4.09662796801614 12.236258447267467 14.905723224339644 0 0 0
200 1 4.071425002128317 14.96501077061636 12.226021749153045 0 0 0
201 1 5.438942359247683 10.854231875820194 10.81513690999017 0 0 0
202 1 5.456657450095125 13.606763748769538 13.528325569631217 0 0 0
203 1 8.117383623627193 10.811562302234378 13.582613653204223 0 0 0
204 1 8.160784739314478 13.569113658435695 10.828257328736715 0 0 0
205 1 6.743958437678617 12.214462064526492 12.25891849674816 0 0 0
206 1 6.798824335430433 14.96060557930642 14.902971403012272 0 0 0
207 1 9.488767739690964 12.219400986047415 14.982372498912676 0 0 0
208 1 9.488757142776743 14.956298648721443 12.201389061321452 0 0 0
209 1 10.855684603203873 10.8311260474851 10.875480082093496 0 0 0
210 1 10.870660948213498 13.55355662425447 13.57618384489379 0 0 0
211 1 13.538018239621547 10.907553319343156 13.603638200451917 0 0 0
212 1 13.603959561595207 13.598351730673272 10.83253742568313 0 0 0
213 1 12.17224064480734 12.243517276978128 12.189874171401547 0 0 0
214 1 12.247580015994645 14.88732882200965 14.940511516210627 0 0 0
215 1 14.925899846574012 12.188721369421678 14.950055870147214 0 0 0
216 1 14.922309163212686 14.955106115635767 12.258485490330953 0 0 0

Velocities

1 0 0 0
2 0 0 0
3 0 0 0
4 0 0 0
5 0 0 0
6 0 0 0
7 0 0 0
8 0 0 0
9 0 0 0
10 0 0 0
11 0 0 0
12 0 0 0
13 0 0 0
14 0 0 0
15 0 0 0
16 0 0 0
17 0 0 0
18 0 0 0
19 0 0 0
20 0 0 0
21 0 0 0
22 0 0 0
23 0 0 0
24 0 0 0
25 0 0 0
26 0 0 0
27 0 0 0
28 0 0 0
29 0 0 0
30 0 0 0
31 0 0 0
32 0 0 0
33 0 0 0
34 0 0 0
35 0 0 0
36 0 0 0
37 0 0 0
38 0 0 0
39 0 0 0
40 0 0 0
41 0 0 0
42 0 0 0
43 0 0 0
44 0 0 0
45 0 0 0
46 0 0 0
47 0 0 0
48 0 0 0
49 0 0 0
50 0 0 0
51 0 0 0
52 0 0 0
53 0 0 0
54 0 0 0
55 0 0 0
56 0 0 0
57 0 0 0
58 0 0 0
59 0 0 0
60 0 0 0
61 0 0 0
62 0 0 0
63 0 0 0
64 0 0 0
65 0 0 0
66 0 0 0
67 0 0 0
68 0 0 0
69 0 0 0
70 0 0 0
71 0 0 0
72 0 0 0
73 0 0 0
74 0 0 0
75 0 0 0
76 0 0 0
77 0 0 0
78 0 0 0
79 0 0 0
80 0 0 0
81 0 0 0
82 0 0 0
83 0 0 0
84 0 0 0
85 0 0 0
86 0 0 0
87 0 0 0
88 0 0 0
89 0 0 0
90 0 0 0
91 0 0 0
92 0 0 0
93 0 0 0
94 0 0 0
95 0 0 0
96 0 0 0
97 0 0 0
98 0 0 0
99 0 0 0
100 0 0 0
101 0 0 0
102 0 0 0
103 0 0 0
104 0 0 0
105 0 0 0
106 0 0 0
107 0 0 0
108 0 0 0
109 0 0 0
110 0 0 0
111 0 0 0
112 0 0 0
113 0 0 0
114 0 0 0
115 0 0 0
116 0 0 0
117 0 0 0
118 0 0 0
119 0 0 0
120 0 0 0
121 0 0 0
122 0 0 0
123 0 0 0
124 0 0 0
125 0 0 0
126 0 0 0
127 0 0 0
128 0 0 0
129 0 0 0
130 0 0 0
131 0 0 0
132 0 0 0
133 0 0 0
134 0 0 0
135 0 0 0
136 0 0 0
137 0 0 0
138 0 0 0
139 0 0 0
140 0 0 0
141 0 0 0
142 0 0 0
143 0 0 0
144 0 0 0
145 0 0 0
146 0 0 0
147 0 0 0
148 0 0 0
149 0 0 0
150 0 0 0
151 0 0 0
152 0 0 0
153 0 0 0
154 0 0 0
155 0 0 0
156 0 0 0
157 0 0 0
158 0 0 0
159 0 0 0
160 0 0 0
161 0 0 0
162 0 0 0
163 0 0 0
164 0 0 0
165 0 0 0
166 0 0 0
167 0 0 0
168 0 0 0
169 0 0 0
170 0 0 0
171 0 0 0
172 0 0 0
173 0 0 0
174 0 0 0
175 0 0 0
176 0 0 0
177 0 0 0
178 0 0 0
179 0 0 0
180 0 0 0
181 0 0 0
182 0 0 0
183 0 0 0
184 0 0 0
185 0 0 0
186 0 0 0
187 0 0 0
188 0 0 0
189 0 0 0
190 0 0 0
191 0 0 0
192 0 0 0
193 0 0 0
194 0 0 0
195 0 0 0
196 0 0 0
197 0 0 0
198 0 0 0
199 0 0 0
200 0 0 0
201 0 0 0
202 0 0 0
203 0 0 0
204 0 0 0
205 0 0 0
206 0 0 0
207 0 0 0
208 0 0 0
209 0 0 0
210 0 0 0
211 0 0 0
212 0 0 0
213 0 0 0
214 0 0 0
215 0 0 0
216 0 0 0
